NAME: tsp25_4
COMMENT: 25-tsp problem (Padberg/Rinaldi)
TYPE: TSP
DIMENSION: 25
EDGE_WEIGHT_TYPE : EUC_2D
NODE_COORD_SECTION
1 30 16
2 5 28
3 5 13
4 0 11
5 9 29
6 10 19
7 22 14
8 14 14
9 25 0
10 0 25
11 17 25
12 8 17
13 32 38
14 33 36
15 22 30
16 8 13
17 37 6
18 36 15
19 13 33
20 21 11
21 22 33
22 21 32
23 1 1
24 7 31
25 12 27
